527865
30,55,29,50,63,38,14,78,33,13,99,75,49,57,36,54,98,6,88,65,103,4,87,44,91,39,101,53,68,46,35,18,10,66,58,26,9,89,80,102,85,74,86,11,70,90,3,67,21,16,17,20,104,105,31,43,34,23,12,81,97,93,92,8,37,94,24,62,41,48,73,60,79,15,7,32,76,52,106,25,56,77,22,72,45,42,100,1,83,96,61,47,2,84,82,71,40,69,19,51,59,27,28,5,95,64